238 300 87 83 88 50 63 98 61 91 50 50 69 51 92 61 77 84 99 56 60 79 89 51 97 58 64 59 66 82 52 78 63 63 85 50 89 98 73 100 62 73 74 55 74 91 92 75 74 90 82 85 93 95 60 90 53 99 73 69 81 50 71 68 63 81 69 76 78 92 50 65 64 74 70 63 89 61 88 88 76 69 72 68 89 56 82 92 80 55 85 85 55 55 52 93 86 71 69 89 87 69 53 51 67 73 89 81 59 50 68 85 95 64 77 83 70 59 74 74 89 58 83 68 88 86 60 99 81 53 87 68 97 64 94 64 61 82 69 70 82 87 79 76 50 81 83 95 90 56 69 52 89 51 70 51 61 80 100 93 84 60 85 80 99 78 68 59 84 87 54 90 98 83 91 98 63 73 93 77 54 86 53 67 61 73 68 98 78 92 64 86 76 99 90 74 76 83 84 59 94 88 73 92 95 63 89 83 87 55 84 91 65 88 57 51 85 50 99 62 92 62 98 68 60 62 92 60 95 100 94 88 87 66 79 56 80 93 89 66 